AutoCreatByScript                       
   1.00000000000000     
     4.3103515799999998   -2.4885826500000001    0.0000000000000000
     0.0000000000000000    4.9771652900000003    0.0000000000000000
     0.0000000000000000    0.0000000000000000   18.0957576600000003
   H    C    O    Ni
     1     1     1    16
Selective dynamics
Direct
 -0.4691383620855225  4.9569296127136120  1.1740163613415937   T   T   T
 -0.5363162729363188  4.9689548719719729  1.1802828180118383   T   T   T
  0.0078269815013508  0.4953664563206801  0.4745861054013930   T   T   T
  0.0733059230479967  0.0528765642660005  0.0107931741620035   F   F   F
  0.0733059230479967  0.5528765652709993  0.0107931741620035   F   F   F
  0.5733059230479967  0.0528765632619973  0.0107931741620035   F   F   F
  0.5733059230479967  0.5528765642660005  0.0107931741620035   F   F   F
  0.2399725897140002  0.3862098972649974  0.1230802227720034   F   F   F
  0.2399725897140002 -0.1137901017309985  0.1230802227720034   F   F   F
  0.7399725897140002  0.3862098982690519  0.1230802227720034   F   F   F
  0.7399725897140002  0.8862098972649974  0.1230802227720034   F   F   F
  0.5542191061922063  0.3411830310776678  0.1972990167965367   T   T   T
 -0.1397325376378322  0.0895554681597337  0.4186988088272285   T   T   T
  0.4602408214024131  0.5175824136653531  0.2817373297123797   T   T   T
  0.2429134810073054  0.4386840874541126  0.0446806536273607   T   T   T
  0.3395258316536247  0.4885966864658315  0.4966471479356837   T   T   T
 -0.7686636301463100 -3.8027031346802325 -1.1715226571795545   T   T   T
  0.3241631755722514  0.1548968627117860  0.3474021178440406   T   T   T
  0.4389777573598806 -0.1432718216897904  0.3410116063612480   T   T   T
 
  0.00000000E+00  0.00000000E+00  0.00000000E+00
  0.00000000E+00  0.00000000E+00  0.00000000E+00
  0.00000000E+00  0.00000000E+00  0.00000000E+00
  0.00000000E+00  0.00000000E+00  0.00000000E+00
  0.00000000E+00  0.00000000E+00  0.00000000E+00
  0.00000000E+00  0.00000000E+00  0.00000000E+00
  0.00000000E+00  0.00000000E+00  0.00000000E+00
  0.00000000E+00  0.00000000E+00  0.00000000E+00
  0.00000000E+00  0.00000000E+00  0.00000000E+00
  0.00000000E+00  0.00000000E+00  0.00000000E+00
  0.00000000E+00  0.00000000E+00  0.00000000E+00
  0.00000000E+00  0.00000000E+00  0.00000000E+00
  0.00000000E+00  0.00000000E+00  0.00000000E+00
  0.00000000E+00  0.00000000E+00  0.00000000E+00
  0.00000000E+00  0.00000000E+00  0.00000000E+00
  0.00000000E+00  0.00000000E+00  0.00000000E+00
  0.00000000E+00  0.00000000E+00  0.00000000E+00
  0.00000000E+00  0.00000000E+00  0.00000000E+00
  0.00000000E+00  0.00000000E+00  0.00000000E+00
