Created by VASPy
 1.000000000
   13.96544224   -4.21073927    0.00000000
    0.00000000   11.22863805    0.00000000
    0.00000000    0.00000000   18.37883786
   Pt    O
   96    2
Selective Dynamics
Direct
    0.200181817467    0.151318179613    0.065127993752    F    F    F
    0.320680242656    0.197178651810    0.260526528551    F    F    F
    0.169878787164    0.014954543249    0.195383981256    F    F    F
    0.279992411177    0.056049773762    0.395284779232    F    F    F
    0.100570677903    0.239145636330    0.446600936340    F    F    F
    0.018363635648    0.083136361431    0.130255987504    F    F    F
    0.138023615936    0.129755085209    0.322507085818    F    F    F
    0.048666665951    0.219499997795    1.000000000000    F    F    F
    0.533515150800    0.151318179613    0.065127993752    F    F    F
    0.654345473158    0.197185675519    0.260390412755    F    F    F
    0.503212120497    1.014954543250    0.195383981256    F    F    F
    0.617192904535    1.059541377320    0.396064254765    F    F    F
    0.433663178968    0.231301296856    0.446232725328    F    F    F
    0.351696968982    0.083136361431    0.130255987504    F    F    F
    0.472995272050    0.130043527968    0.320436866032    F    F    F
    0.381999999285    0.219499997795    1.000000000000    F    F    F
    0.866848484133    1.151318179610    0.065127993752    F    F    F
   -0.013703776469    0.196162083517    0.260861843559    F    F    F
    0.836545453830    1.014954543250    0.195383981256    F    F    F
   -0.051861392647    0.057335594592    0.396790764292    F    F    F
    0.768125966318    0.240488362421    0.447936928126    F    F    F
    0.685030302315    1.083136361430    0.130255987504    F    F    F
    0.804934334863    1.129492131420    0.323285177005    F    F    F
    0.715333332618    0.219499997795    1.000000000000    F    F    F
    0.200181817467    0.401318179613    0.065127993752    F    F    F
    0.321187881164    0.447710187780    0.260492747364    F    F    F
    0.169878787164    0.264954543249    0.195383981256    F    F    F
    0.283198778661    0.308765086597    0.393438166268    F    F    F
    0.101823536434    0.489642165611    0.447005487762    F    F    F
    0.018363635648    0.333136361431    0.130255987504    F    F    F
    0.137988492038    0.379598707455    0.322874977694    F    F    F
    0.048666665951    0.469499997795    1.000000000000    F    F    F
    0.533515150800    0.401318179613    0.065127993752    F    F    F
    0.652607252287    0.446548378898    0.260530267813    F    F    F
    0.503212120497    0.264954543249    0.195383981256    F    F    F
    0.616483382190    0.307440619077    0.395063335242    F    F    F
    0.433387154240    0.474957741585    0.457573048042    F    F    F
    0.351696968982    0.333136361431    0.130255987504    F    F    F
    0.469916465574    0.382019345516    0.325820655539    F    F    F
    0.381999999285    0.469499997795    1.000000000000    F    F    F
    0.866848484133    0.401318179613    0.065127993752    F    F    F
   -0.013210567968    0.446963863999    0.260593496811    F    F    F
    0.836545453830    0.264954543249    0.195383981256    F    F    F
   -0.050898273319    0.308418562959    0.395903515159    F    F    F
    0.766814976865    0.489036413655    0.447854633234    F    F    F
    0.685030302315    0.333136361431    0.130255987504    F    F    F
    0.804991103223    0.379818797205    0.323001175720    F    F    F
    0.715333332618    0.469499997795    1.000000000000    F    F    F
    0.200181817467    0.651318179613    0.065127993752    F    F    F
    0.321365330894    0.696371327461    0.260521977391    F    F    F
    0.169878787164    0.514954543249    0.195383981256    F    F    F
    0.287003718966    0.559387905737    0.395665980225    F    F    F
    0.100292941742    0.738435901171    0.446555718790    F    F    F
    0.018363635648    0.583136361431    0.130255987504    F    F    F
    0.137866995043    0.628450026796    0.322948531064    F    F    F
    0.048666665951    0.719499997795    1.000000000000    F    F    F
    0.533515150800    0.651318179613    0.065127993752    F    F    F
    0.650634832707    0.695546333883    0.261288816890    F    F    F
    0.503212120497    0.514954543249    0.195383981256    F    F    F
    0.615956002450    0.557165886964    0.395196344117    F    F    F
    0.432973319734    0.751159312235    0.456817533539    F    F    F
    0.351696968982    0.583136361431    0.130255987504    F    F    F
    0.467817028411    0.628732440737    0.332059001701    F    F    F
    0.381999999285    0.719499997795    1.000000000000    F    F    F
    0.866848484133    0.651318179613    0.065127993752    F    F    F
   -0.013895107153    0.697076209581    0.260938137919    F    F    F
    0.836545453830    0.514954543249    0.195383981256    F    F    F
   -0.051849490201    0.557824094615    0.396192147120    F    F    F
    0.765461820924    0.738531281937    0.447954691900    F    F    F
    0.685030302315    0.583136361431    0.130255987504    F    F    F
    0.803918008879    0.629415790551    0.323079742719    F    F    F
    0.715333332618    0.719499997795    1.000000000000    F    F    F
    0.200181817467    0.901318179613    0.065127993752    F    F    F
    0.320684187412    0.947433168614    0.260407106732    F    F    F
    0.169878787164    0.764954543249    0.195383981256    F    F    F
    0.283020366290    0.807248026704    0.393020151835    F    F    F
    0.099119356734   -0.011199679821    0.446658674320    F    F    F
    0.018363635648    0.833136361431    0.130255987504    F    F    F
    0.137196284117    0.878530752971    0.322847746419    F    F    F
    0.048666665951   -0.030500002205    1.000000000000    F    F    F
    0.533515150800    0.901318179613    0.065127993752    F    F    F
    0.652642687838    0.946721610737    0.260588432720    F    F    F
    0.503212120497    0.764954543249    0.195383981256    F    F    F
    0.616373166757    0.810417279954    0.394761851455    F    F    F
    0.434249606552    0.996825495226    0.446225053953    F    F    F
    0.351696968982    0.833136361431    0.130255987504    F    F    F
    0.469749041797    0.876639304438    0.325634835019    F    F    F
    0.381999999285    0.969499997795    1.000000000000    F    F    F
    0.866848484133    0.901318179613    0.065127993752    F    F    F
   -0.013932781050   -0.053293426285    0.261094045010    F    F    F
    0.836545453830    0.764954543249    0.195383981256    F    F    F
    0.947480536910    0.807446816850    0.397457331196    F    F    F
    0.767360801039    0.990183740133    0.448361679332    F    F    F
    0.685030302315    0.833136361431    0.130255987504    F    F    F
    0.803748942264    0.878814772155    0.323312621277    F    F    F
    0.715333332618    0.969499997795    1.000000000000    F    F    F
    0.450224361923    0.493896615558    0.553964744722    T    T    T
    0.447394558940    0.748319228356    0.553600665432    T    T    T
