AutoCreatByScript
 1.000000000
    4.31035158    -2.48858265     0.00000000
    0.00000000     4.97716529     0.00000000
    0.00000000     0.00000000    18.09575766
    H    C    O   Ni
    1    1    1   16
Selective Dynamics
Direct
    0.264959168674    0.391755097391    0.433324113030    T   T   T
    0.138323776233    0.539930271776    0.445889413488    T   T   T
    0.079939844105    0.625870412943    0.501883035127    T   T   T
    0.073305923048    0.052876564266    0.010793174162    F   F   F
    0.073305923048    0.552876565271    0.010793174162    F   F   F
    0.573305923048    0.052876563262    0.010793174162    F   F   F
    0.573305923048    0.552876564266    0.010793174162    F   F   F
    0.239972589714    0.386209897265    0.123080222772    F   F   F
    0.239972589714    0.886209898269    0.123080222772    F   F   F
    0.739972589714    0.386209898269    0.123080222772    F   F   F
    0.739972589714    0.886209897265    0.123080222772    F   F   F
    0.410410022801    0.220071142582    0.234554334444    T   T   T
    0.910518428192    0.220902906061    0.234152368186    T   T   T
    0.410807754307    0.721158359929    0.235010213331    T   T   T
    0.910066901130    0.720841195554    0.235007492287    T   T   T
    0.574946041099    0.552495024446    0.345135102636    T   T   T
    0.074762851768    0.552708426856    0.347838550676    T   T   T
    0.071315140348    0.051300016259    0.350089205219    T   T   T
    0.576186922210    0.051241497080    0.350365994058    T   T   T
